InboundTrucks  = 60;
OutboundTrucks = 30;
ReleaseTime    = [57,41,55,55,11,27,20,42,31,144,2,33,47,115,172,39,45,12,150,16,146,15,176,53,29,8,15,49,115,2,24,45,12,33,16,142,28,55,30,48,31,55,17,40,2,40,20,25,6,48,59,30,33,97,54,140,2,57,147,139];
UnloadTime     = [1,9,11,11,6,8,12,2,9,4,11,4,4,10,4,6,3,6,10,12,6,1,6,4,2,9,6,9,2,4,12,10,8,1,4,3,4,12,9,10,9,10,3,11,3,5,12,10,6,3,3,11,8,7,3,6,10,3,5,1];
LoadTime       = [7,1,11,1,7,1,10,11,10,3,6,5,6,1,7,4,2,12,10,11,4,9,10,11,11,9,12,8,12,11];
TransferTime   = [| 2,2,0,0,2,0,0,1,1,0,0,0,0,0,0,1,1,0,1,0,0,0,2,2,0,0,0,0,1,2 | 0,2,0,2,1,1,0,0,0,0,0,0,0,2,1,2,0,0,1,0,0,0,0,0,0,1,0,2,2,0 | 1,1,0,1,1,2,0,1,2,0,0,0,0,0,0,2,2,1,1,2,0,2,1,0,2,1,2,0,2,0 | 0,0,0,2,0,0,0,0,0,0,2,0,0,1,2,0,2,2,0,0,0,1,0,0,2,2,2,0,2,0 | 1,0,0,0,0,2,1,0,0,0,2,0,0,0,0,2,1,0,0,0,0,0,0,1,2,0,0,0,0,0 | 2,2,0,0,0,0,0,0,0,0,2,0,0,0,0,2,1,0,2,0,0,1,1,2,0,0,0,2,2,1 | 0,0,2,0,0,1,2,0,2,0,0,2,0,0,0,0,0,1,0,0,0,0,0,2,0,1,0,1,0,2 | 0,2,0,0,0,0,1,1,0,0,1,0,2,1,1,0,2,0,0,0,0,2,1,0,0,0,2,1,2,0 | 0,0,0,1,0,0,0,2,1,1,0,0,0,1,0,0,1,0,0,1,0,2,2,0,0,0,0,0,0,0 | 0,0,0,0,0,0,0,2,0,0,0,2,0,0,0,0,0,0,2,0,2,0,0,0,0,1,1,0,0,0 | 0,0,2,0,0,0,0,0,1,0,2,0,1,0,0,0,0,2,0,1,0,0,0,0,0,0,2,0,2,0 | 0,0,1,0,0,0,0,2,0,0,1,1,0,2,1,1,0,0,1,0,0,0,0,0,0,1,0,0,2,2 | 0,0,3,0,3,0,0,0,0,0,0,4,0,0,0,3,0,0,0,0,3,0,0,0,0,0,0,0,0,0 | 0,0,0,0,0,0,4,0,0,0,2,0,0,2,0,0,0,2,1,0,4,0,0,0,0,0,0,0,0,5 | 1,1,0,0,0,2,0,3,4,0,0,0,0,4,0,0,2,4,0,0,4,1,1,0,0,0,0,0,0,0 | 0,0,0,0,2,3,0,0,0,0,3,3,0,0,0,0,0,0,1,3,0,0,0,0,0,0,0,0,0,0 | 4,0,5,0,0,2,0,0,0,3,0,0,5,0,0,0,0,4,0,0,0,1,0,4,0,2,0,4,0,0 | 0,3,1,0,4,1,1,0,0,1,4,0,0,0,0,3,1,0,0,1,0,0,0,0,0,3,0,4,5,0 | 0,0,0,0,0,0,0,0,5,0,2,0,0,5,1,2,1,0,0,0,0,0,0,0,0,0,0,0,4,0 | 0,0,0,1,0,0,2,0,0,0,0,4,0,0,0,0,0,0,0,0,3,0,0,0,0,0,0,0,0,5 | 0,0,0,0,3,0,0,4,0,4,0,1,0,0,0,0,2,0,0,0,0,0,4,4,0,0,0,2,0,4 | 0,0,0,0,0,0,2,4,0,3,0,0,3,0,0,2,0,0,2,3,0,0,3,0,0,3,1,0,4,0 | 3,0,0,0,0,0,0,0,0,0,3,0,0,0,0,1,5,0,0,5,0,0,0,3,0,0,1,0,0,2 | 0,0,0,0,2,3,0,0,0,3,0,2,0,0,1,0,0,0,0,2,0,0,3,0,1,3,0,4,0,0 | 0,0,0,0,0,0,0,3,0,3,0,0,0,0,0,0,0,0,0,0,2,0,0,0,0,2,0,0,5,0 | 0,0,0,0,0,5,0,0,0,0,3,0,0,0,0,0,3,3,2,0,0,0,0,4,2,0,4,0,2,0 | 0,0,0,5,1,0,0,0,0,0,0,4,3,0,0,0,3,0,0,3,0,0,0,0,0,0,0,0,0,0 | 0,0,0,0,3,2,0,0,0,0,0,2,0,1,0,0,0,4,0,0,0,0,0,1,0,0,0,0,0,0 | 0,0,0,0,2,0,3,0,0,0,5,0,0,0,4,3,0,0,4,0,0,2,0,0,0,0,0,0,0,0 | 0,0,0,0,1,0,0,0,0,0,0,0,0,0,3,3,3,3,0,0,0,0,0,0,4,4,0,0,0,0 | 3,0,0,1,2,0,2,4,0,4,0,3,0,0,0,0,0,0,0,0,0,3,0,5,0,4,0,0,0,0 | 3,0,0,0,0,0,0,1,1,0,0,0,0,0,0,0,2,0,0,0,0,4,4,0,5,0,0,0,0,0 | 0,5,0,0,0,5,3,1,0,0,0,2,0,4,1,4,0,0,0,1,3,0,0,0,5,0,0,0,0,0 | 0,0,3,0,0,4,0,0,0,4,0,0,5,0,0,1,0,0,0,0,0,0,0,0,0,5,3,0,0,0 | 2,0,0,0,4,0,0,0,0,1,0,4,2,5,0,5,0,1,0,1,0,2,0,0,0,5,0,0,0,0 | 4,0,0,0,2,5,0,0,0,2,0,0,0,0,0,5,0,0,4,0,4,5,1,0,0,1,0,5,4,0 | 0,0,0,1,0,2,0,0,0,0,0,1,0,0,0,0,2,0,3,0,3,0,0,3,0,0,0,0,2,0 | 0,0,5,0,0,0,0,0,0,3,0,2,0,0,3,4,4,0,0,0,0,0,2,5,1,4,0,3,0,0 | 0,0,0,0,0,0,0,2,0,0,1,1,0,0,0,0,0,0,0,0,0,2,0,0,0,1,0,0,1,0 | 0,0,0,5,0,0,0,0,2,0,0,0,0,0,0,1,0,0,0,0,3,0,0,0,0,0,0,4,0,0 | 0,0,0,0,0,0,0,0,2,2,0,0,0,0,0,0,0,5,1,0,0,0,0,1,0,0,0,3,0,0 | 0,5,0,5,0,0,4,0,0,0,0,0,5,0,1,0,5,0,0,2,0,0,0,0,5,0,0,0,0,0 | 0,0,0,0,2,0,0,0,0,5,0,0,0,0,0,0,0,0,0,0,0,4,0,4,0,0,0,0,3,0 | 0,0,0,0,5,0,0,0,2,4,4,0,0,0,0,0,0,2,0,0,0,0,0,0,0,0,0,0,0,0 | 0,0,0,3,0,0,0,0,0,2,3,0,0,0,0,0,0,0,0,0,5,0,0,0,0,0,4,4,0,1 | 3,4,0,0,5,3,0,0,0,0,5,0,0,1,0,0,0,0,0,0,0,0,4,0,0,2,2,0,0,0 | 0,0,0,0,2,0,0,0,5,3,0,3,0,0,0,0,0,0,0,0,4,0,1,0,0,5,1,0,0,0 | 4,0,0,0,0,2,2,0,0,0,0,0,0,0,0,3,2,5,0,0,0,0,1,0,3,2,0,1,4,4 | 4,5,0,5,0,0,0,2,0,0,5,0,2,0,0,0,0,0,0,0,0,0,0,0,0,0,0,4,0,2 | 0,0,0,0,0,0,0,0,0,2,0,0,0,4,0,0,5,0,0,0,0,0,4,0,2,0,0,2,0,0 | 2,0,0,4,0,0,0,0,0,2,0,1,3,0,0,1,0,0,0,4,0,4,3,3,0,0,0,3,0,1 | 5,0,0,2,2,0,0,0,0,0,0,2,0,3,0,5,0,0,0,0,0,0,5,0,0,0,0,0,0,0 | 0,0,0,0,0,1,4,0,0,0,0,0,5,1,0,0,5,5,2,0,0,0,2,0,0,0,4,0,0,0 | 0,0,0,0,5,0,3,0,0,0,2,0,0,1,0,2,0,0,0,5,4,0,0,0,2,2,0,0,0,0 | 5,0,0,0,0,0,0,0,4,0,0,0,0,4,0,3,0,0,0,2,0,0,0,2,0,0,0,0,0,3 | 0,0,1,0,0,0,0,0,0,4,0,0,0,0,0,0,0,1,3,0,0,3,1,3,0,0,0,5,1,0 | 0,5,0,4,0,0,5,0,0,0,0,0,0,0,5,0,0,3,0,0,0,0,0,5,0,0,0,3,0,0 | 0,5,3,0,0,0,0,0,0,0,0,4,5,0,0,2,0,0,0,2,3,0,4,0,0,0,0,0,0,0 | 5,0,0,3,0,0,0,0,5,5,0,0,0,0,2,0,0,0,1,3,0,0,0,3,0,0,0,0,0,2 | 0,0,0,0,0,0,0,0,0,0,3,0,0,0,0,0,0,0,1,0,0,0,0,0,0,4,0,0,5,1 |];
